========================================================== 
File name: C:\DEGR\assets\definitions\MSRCPSP_Gen\500_20_512_5_B.def
Creation date: Sat May 06 09:15:48 CEST 2023
Website: http://imopse.ii.pwr.edu.pl/ 
Reference: 
Myszkowski P. B., Skowronski M. E., Olech L., Oslizlo K., 
Hybrid Ant Colony Optimization in solving Multi-Skill Resource-Constrained Project Scheduling Problem, 
Soft Computing, DOI: DOI 10.1007/s00500-014-1455-x 
========================================================== 
General characteristics: 
Tasks: 500
Resources: 20
Precedence relations: 510
Number of skill types: 5
========================================================== 
ResourceID 	 Salary 	 Skills 
1	 	 	70.5	 	 Q4: 1 	  Q2: 0 	  Q0: 3 	 
2	 	 	91.0	 	 Q4: 0 	 
3	 	 	25.6	 	 Q3: 2 	  Q2: 2 	  Q4: 0 	 
4	 	 	69.6	 	 Q0: 3 	  Q1: 1 	 
5	 	 	34.1	 	 Q2: 3 	  Q0: 1 	 
6	 	 	96.7	 	 Q3: 0 	  Q4: 3 	 
7	 	 	17.1	 	 Q0: 3 	  Q3: 1 	 
8	 	 	15.2	 	 Q1: 2 	  Q0: 0 	  Q2: 2 	  Q3: 0 	 
9	 	 	32.0	 	 Q3: 2 	  Q0: 3 	 
10	 	 	73.9	 	 Q0: 1 	  Q4: 1 	 
11	 	 	65.3	 	 Q1: 2 	 
12	 	 	87.3	 	 Q2: 3 	  Q0: 3 	 
13	 	 	40.8	 	 Q4: 3 	 
14	 	 	69.3	 	 Q3: 0 	  Q1: 2 	 
15	 	 	69.7	 	 Q2: 2 	  Q0: 1 	  Q4: 2 	  Q1: 1 	 
16	 	 	28.9	 	 Q4: 1 	  Q1: 2 	 
17	 	 	95.4	 	 Q2: 0 	  Q1: 1 	  Q4: 2 	  Q3: 1 	 
18	 	 	34.3	 	 Q4: 2 	  Q1: 1 	  Q2: 2 	  Q3: 1 	 
19	 	 	87.3	 	 Q1: 3 	  Q2: 3 	  Q4: 3 	 
20	 	 	82.8	 	 Q0: 1 	  Q1: 0 	  Q4: 3 	  Q2: 3 	 
========================================================== 
TaskID 	 Duration 	 Skill 	 Predecessor IDs 
1	25	Q0:	3
2	20	Q3:	1
3	22	Q2:	3
4	18	Q3:	0
5	29	Q0:	0
6	24	Q4:	0
7	29	Q4:	0
8	39	Q1:	0
9	28	Q4:	0
10	19	Q2:	2
11	11	Q1:	3
12	10	Q2:	2
13	17	Q2:	3
14	25	Q0:	0
15	29	Q3:	1
16	28	Q2:	3
17	36	Q0:	1
18	9	Q2:	2
19	31	Q0:	1
20	33	Q1:	1
21	24	Q1:	1
22	32	Q0:	0
23	31	Q2:	3
24	23	Q4:	0
25	36	Q4:	0
26	11	Q1:	2
27	14	Q1:	3	11
28	39	Q4:	3
29	27	Q4:	3
30	25	Q0:	0
31	11	Q2:	2
32	37	Q3:	0
33	39	Q3:	2
34	31	Q1:	1
35	17	Q4:	2
36	10	Q3:	0
37	9	Q2:	3
38	34	Q3:	2
39	24	Q1:	3
40	27	Q2:	0
41	35	Q4:	3
42	25	Q2:	3
43	30	Q1:	1
44	38	Q0:	1
45	22	Q4:	0
46	17	Q1:	0
47	32	Q1:	1
48	25	Q3:	1
49	15	Q2:	3
50	23	Q0:	1
51	10	Q2:	2
52	29	Q2:	0
53	10	Q0:	3	15
54	21	Q1:	0
55	24	Q2:	0
56	30	Q2:	2
57	40	Q1:	1
58	26	Q4:	2
59	25	Q1:	0
60	19	Q1:	0
61	26	Q4:	0
62	24	Q4:	3
63	38	Q4:	3	35
64	40	Q2:	0
65	17	Q2:	2
66	32	Q3:	1
67	23	Q1:	0
68	22	Q0:	3
69	25	Q4:	3
70	34	Q3:	1
71	36	Q3:	1	31
72	25	Q4:	1
73	26	Q1:	2
74	12	Q2:	0	18
75	20	Q2:	2
76	38	Q1:	1
77	17	Q2:	3	68
78	38	Q4:	1	58
79	31	Q2:	0
80	40	Q2:	2
81	30	Q1:	2
82	36	Q0:	1
83	34	Q4:	1
84	30	Q0:	1
85	17	Q2:	0
86	34	Q0:	0
87	11	Q3:	0
88	13	Q3:	1	69	25
89	17	Q3:	0	73
90	25	Q3:	1
91	14	Q3:	0	28
92	19	Q2:	2
93	36	Q2:	0
94	35	Q2:	0	53
95	14	Q4:	0
96	35	Q2:	3	89
97	11	Q2:	3	70
98	25	Q2:	3
99	35	Q0:	3	50
100	35	Q4:	3
101	27	Q1:	0	53
102	19	Q1:	3
103	14	Q4:	3	13
104	21	Q2:	3
105	13	Q0:	3
106	23	Q1:	0	31
107	23	Q4:	0	71
108	24	Q2:	2
109	26	Q3:	2
110	38	Q3:	0
111	17	Q0:	3	18
112	40	Q2:	0
113	38	Q3:	2	33
114	36	Q4:	2
115	28	Q1:	1
116	34	Q1:	2	61
117	32	Q0:	1
118	10	Q2:	0
119	33	Q0:	1	60
120	32	Q2:	2
121	30	Q0:	0
122	10	Q0:	3	89
123	29	Q1:	1
124	14	Q1:	2
125	11	Q4:	2
126	14	Q2:	0
127	39	Q1:	0
128	13	Q1:	3	88
129	29	Q1:	2	117	19
130	15	Q3:	1
131	24	Q4:	2
132	14	Q0:	1
133	20	Q2:	2	19
134	32	Q0:	3
135	22	Q4:	0	16	58
136	38	Q1:	0
137	13	Q3:	0	42
138	9	Q1:	2
139	23	Q2:	2
140	15	Q3:	2
141	40	Q0:	1	41
142	37	Q1:	3
143	28	Q3:	0
144	16	Q4:	1
145	19	Q3:	2	81
146	10	Q0:	1
147	14	Q3:	0	14
148	32	Q0:	1
149	29	Q4:	3
150	24	Q2:	0	98
151	28	Q1:	3	12
152	37	Q1:	2	99
153	18	Q3:	2
154	18	Q2:	0	59	8
155	37	Q1:	3
156	34	Q1:	0	21
157	23	Q0:	1
158	33	Q2:	2
159	32	Q1:	3
160	15	Q3:	2	91
161	37	Q2:	3
162	29	Q1:	1
163	16	Q3:	2
164	37	Q1:	1	71
165	22	Q0:	0
166	36	Q4:	2	76
167	27	Q4:	0	57	20
168	26	Q1:	3
169	16	Q2:	3
170	28	Q2:	3
171	29	Q4:	2	10	100
172	25	Q4:	1
173	35	Q1:	0	159	145
174	14	Q3:	0
175	11	Q0:	1	118
176	24	Q0:	0	25
177	38	Q1:	3
178	40	Q4:	1	138
179	27	Q2:	0	10
180	34	Q4:	2	143
181	20	Q0:	1
182	34	Q0:	0
183	11	Q3:	1	41
184	26	Q1:	0	145	132
185	27	Q2:	3	46
186	28	Q4:	1	87	98
187	39	Q4:	1	56
188	26	Q3:	0	49
189	34	Q2:	3	18	105
190	15	Q1:	2	19
191	37	Q1:	0
192	19	Q0:	1	184	134
193	32	Q0:	3	60	52
194	19	Q1:	3
195	17	Q1:	2	160	78
196	39	Q4:	3
197	28	Q3:	0	170
198	17	Q3:	1
199	24	Q0:	3
200	19	Q0:	3	2
201	33	Q4:	3
202	36	Q0:	0	201	67
203	34	Q1:	3	101	90	184
204	21	Q4:	1
205	38	Q4:	0	28	192
206	24	Q3:	2	64	194	35
207	34	Q2:	3	73	37
208	40	Q4:	3	1
209	12	Q4:	0
210	13	Q1:	1	65	77	206
211	19	Q4:	0	118
212	24	Q0:	1
213	29	Q2:	3	155	120
214	15	Q0:	1	24
215	34	Q1:	3
216	40	Q4:	0	121
217	35	Q4:	3	53	136
218	18	Q3:	2
219	33	Q3:	0
220	40	Q1:	2	143	10	35
221	20	Q4:	3	140
222	14	Q2:	0	58
223	28	Q4:	1
224	22	Q2:	0	31
225	27	Q2:	3	192
226	24	Q0:	0
227	12	Q1:	2	83
228	20	Q1:	0	108
229	39	Q4:	3
230	27	Q3:	0	158
231	31	Q1:	3
232	17	Q3:	0	24	135	161
233	16	Q1:	3	177	171	149
234	37	Q1:	2
235	11	Q0:	0
236	17	Q1:	0	213
237	28	Q0:	1	226
238	9	Q0:	3
239	36	Q0:	3
240	15	Q1:	2
241	12	Q1:	1	137
242	11	Q4:	0	106
243	18	Q1:	3
244	35	Q1:	3
245	26	Q1:	1	187	105	185
246	11	Q2:	2	73	66
247	34	Q1:	2	135	79
248	23	Q1:	3
249	10	Q0:	0	143
250	20	Q1:	3	82	135
251	20	Q4:	3
252	40	Q4:	0	44	118	114
253	17	Q1:	1
254	29	Q3:	0	173
255	14	Q3:	2	44
256	34	Q2:	2	245
257	16	Q0:	1	251	138
258	25	Q3:	2
259	33	Q4:	3	143
260	37	Q1:	2	242
261	17	Q1:	3	199	49
262	12	Q3:	2
263	33	Q3:	0	251
264	27	Q3:	0	166
265	18	Q4:	2
266	20	Q3:	0	119
267	24	Q1:	3	198	78
268	17	Q1:	2	42
269	17	Q4:	2
270	30	Q3:	2
271	26	Q4:	1
272	38	Q4:	3
273	39	Q1:	0
274	14	Q2:	0	97	224
275	10	Q0:	3
276	16	Q2:	2	97	122
277	12	Q1:	1	99
278	35	Q3:	0	155
279	32	Q0:	3
280	22	Q1:	3
281	32	Q3:	0	78
282	28	Q4:	2
283	16	Q0:	1
284	12	Q3:	0
285	35	Q4:	2	43
286	17	Q4:	0	235	212
287	17	Q0:	0	176
288	24	Q2:	2
289	34	Q4:	3	26
290	27	Q3:	0	280	237
291	18	Q3:	2	144
292	37	Q0:	0	149	187
293	23	Q3:	0	83	260
294	9	Q0:	0	191	195	188
295	27	Q2:	3	273
296	29	Q0:	1	269
297	30	Q1:	0
298	27	Q0:	0	253
299	13	Q2:	3
300	33	Q2:	0	118	286
301	38	Q4:	3	254	202
302	22	Q1:	0	296
303	35	Q2:	0	240
304	24	Q2:	3
305	32	Q0:	0	11
306	16	Q1:	3
307	22	Q1:	1
308	26	Q2:	0
309	39	Q4:	1
310	35	Q4:	3	60
311	25	Q1:	1	276
312	33	Q4:	3	224	174
313	16	Q0:	3	133
314	10	Q2:	0	138	39	143
315	40	Q4:	3	266
316	13	Q3:	2	1	237	204
317	24	Q3:	2	314
318	36	Q1:	3	57	302
319	28	Q4:	1	259
320	26	Q0:	1	229
321	13	Q1:	3	276
322	30	Q3:	2
323	20	Q3:	0
324	24	Q3:	2	221	95	87
325	26	Q3:	1	76	36	155
326	17	Q1:	1	43	159
327	20	Q3:	0	11
328	29	Q2:	2	6
329	31	Q0:	3	83	296	156
330	11	Q1:	0	312
331	19	Q3:	0	179	97
332	9	Q4:	2	233
333	14	Q1:	2	90
334	16	Q2:	2	201	44
335	16	Q4:	3	82
336	18	Q0:	1
337	38	Q1:	3	251	310	123
338	26	Q0:	0	257
339	22	Q2:	0	119
340	17	Q3:	2	54
341	15	Q4:	0	79	130	199
342	33	Q3:	1
343	17	Q2:	3	319	115
344	22	Q0:	0	225	176
345	17	Q3:	2	299
346	20	Q0:	3	296
347	12	Q1:	2	202	280
348	12	Q1:	3	266
349	33	Q4:	1	62	39
350	23	Q2:	0	126	344	302
351	40	Q2:	2	316	279	332
352	28	Q0:	1	155	194	263	62
353	19	Q0:	1	210
354	26	Q4:	2	263
355	14	Q4:	0	2	336
356	9	Q1:	0
357	29	Q4:	2	185	71	219
358	15	Q3:	0	225	320
359	18	Q0:	3	161
360	9	Q4:	0	222
361	37	Q0:	3	316	295	354
362	17	Q1:	0	33	301	175
363	12	Q0:	0	359	24
364	15	Q1:	0	214
365	17	Q2:	0	50
366	9	Q4:	2	104
367	34	Q2:	2	69
368	25	Q1:	3	322
369	11	Q2:	3	221	80
370	17	Q1:	1	238
371	11	Q4:	2	278	92
372	16	Q4:	3	306	277
373	35	Q0:	0	94	370
374	17	Q2:	2	28	282
375	15	Q3:	0	370	107
376	13	Q0:	1	69
377	26	Q0:	0	356	112
378	36	Q1:	0	147	291
379	16	Q3:	0	354	287	158	315
380	14	Q0:	1	266
381	26	Q2:	3	340	85
382	20	Q0:	1	99
383	17	Q4:	2	57	373
384	38	Q3:	1	20	214
385	22	Q3:	0	277
386	17	Q0:	1	53
387	33	Q4:	3	283	351
388	30	Q1:	0	22	384
389	21	Q0:	0
390	13	Q4:	3	129	99
391	9	Q4:	3	351
392	35	Q3:	0	50	57	145
393	31	Q1:	1	88
394	20	Q1:	0	310	221
395	39	Q3:	1	277	285	181
396	30	Q0:	3	149
397	28	Q0:	1	369	351	17
398	31	Q1:	1	164
399	20	Q1:	3	236	351	139
400	14	Q2:	0
401	36	Q1:	1	31	335	97
402	34	Q3:	0	375
403	9	Q0:	1	277	379	169	189	99
404	18	Q3:	0	399	343
405	40	Q1:	1	261	271
406	27	Q0:	0
407	14	Q0:	1	279
408	31	Q0:	3	405	367
409	37	Q2:	3	254
410	25	Q1:	0	68	228
411	24	Q1:	1
412	13	Q4:	0	80	321
413	27	Q3:	2	294	88	379	58
414	22	Q1:	1
415	39	Q0:	3
416	19	Q4:	2	3	36
417	27	Q4:	0	118
418	35	Q4:	0	169
419	22	Q3:	1
420	23	Q2:	0	416	355
421	21	Q1:	3	33	268	204	208	11
422	19	Q0:	3	375	346	113
423	9	Q3:	0	346	75
424	21	Q1:	1	315
425	34	Q2:	3	220	152
426	29	Q4:	2	49
427	10	Q3:	1	164	101	389
428	20	Q4:	2	375
429	15	Q4:	2	184
430	40	Q2:	2	47	311
431	13	Q3:	1	261
432	20	Q1:	2	185	320
433	10	Q4:	0	275
434	30	Q4:	3	33	131
435	36	Q3:	0	222	289	381
436	20	Q4:	3
437	31	Q0:	3	431	154
438	34	Q4:	1
439	14	Q0:	1	347	302	48
440	38	Q4:	2
441	20	Q2:	3	429
442	19	Q0:	3	13	296	390
443	40	Q2:	2	98
444	10	Q2:	3	130
445	15	Q1:	0	268	45	59
446	33	Q4:	3	220
447	30	Q3:	2	291
448	34	Q1:	1	323	230
449	20	Q4:	0	423	185
450	9	Q3:	2	218	262
451	19	Q0:	0	149
452	19	Q4:	1	91
453	12	Q1:	2	202	384
454	15	Q2:	0	317	275	17
455	16	Q2:	0	452	140
456	18	Q3:	1	329	367
457	18	Q4:	1	43	140
458	39	Q2:	2	45
459	8	Q0:	3	439	23
460	25	Q4:	1	31
461	34	Q2:	2	65	400	232
462	38	Q4:	1	132	195
463	26	Q0:	1	362	392	379
464	33	Q3:	0	296	228	46
465	10	Q4:	3	402	18
466	25	Q0:	0	373	222
467	9	Q1:	0	304	317
468	32	Q1:	3	92	250	422
469	39	Q0:	3	458
470	40	Q0:	3	375
471	14	Q1:	0	51	263
472	32	Q2:	2	22	18	163
473	33	Q0:	0	363	35
474	36	Q1:	3	222	91
475	38	Q3:	2	234
476	39	Q3:	1
477	24	Q4:	2	288
478	28	Q2:	3	193
479	17	Q2:	2	7	16	30
480	40	Q1:	0	206	269
481	16	Q4:	2
482	28	Q4:	3	62
483	24	Q2:	0	209	73	307	49	201
484	27	Q4:	3	142	374	170
485	11	Q1:	3	64	185	423	361
486	29	Q2:	3	197	392
487	15	Q0:	1	269	251
488	27	Q1:	1	465	108
489	21	Q1:	2	358	238
490	19	Q1:	2	294	122	239
491	9	Q1:	0	166	182	246
492	34	Q3:	1
493	35	Q4:	3
494	40	Q2:	3	240	339
495	12	Q1:	2	334	247
496	23	Q2:	0	243
497	28	Q1:	3	475	338	314
498	18	Q2:	0	318	92	363
499	38	Q2:	0	123	319	40	191
500	30	Q1:	1	351	260	428	494
========================================================== 